unsat
(:binary-propagations  19
 :conflicts            1
 :final-checks         1
 :max-generation       1
 :max-memory           23.39
 :memory               20.93
 :mk-bool-var          515
 :mk-clause            153
 :mk-clause-binary     398
 :num-allocs           8996754
 :num-checks           1
 :propagations         19
 :quant-instantiations 111
 :restarts             1
 :rlimit-count         97664
 :time                 0.03)
